100 500 10 200 10 100
42 194
20 23
44 146
79 119
22 193
51 124
30 172
15 57
91 85
39 149
61 29
79 34
71 90
49 115
28 192
49 48
42 177
14 33
29 130
89 102
42 150
13 158
33 95
26 125
37 88
17 88
81 67
35 176
34 162
61 158
48 109
29 182
76 100
19 29
33 169
53 186
54 180
81 83
64 192
18 66
69 92
95 29
27 122
17 118
75 128
19 81
30 114
55 156
79 89
18 77
26 118
30 187
17 48
10 16
77 89
79 130
50 82
11 142
73 165
71 122
39 168
22 163
72 76
35 129
32 115
69 33
58 79
71 187
15 124
52 169
97 108
44 196
20 69
67 197
70 18
84 160
72 110
74 123
80 83
64 175
96 68
12 65
74 83
88 98
99 65
77 53
77 198
95 143
18 198
87 156
16 78
39 36
82 80
37 198
29 44
26 185
22 44
85 83
56 112
81 158
